p cnf 19 21
-14 13 5 0
-6 -18 15 0
-8 -12 7 0
-16 19 11 15 0
9 -4 -18 0
1 -6 17 0
1 13 -18 0
17 5 -18 0
-16 1 -4 0
-6 -14 -12 0
-8 -12 13 0
-6 3 7 0
1 -3 -8 -7 -19 0
17 2 -14 -7 -19 0
5 7 0
1 -12 7 11 -3 15 0
-14 3 -10 0
-3 -12 7 8 -19 0
-8 17 -4 0
-9 8 -7 -6 -19 0
9 3 -2 0
